Version,
  26.1;

Building,
  Autocalculate Casing,
  0.0,                     !- North Axis {deg}
  City,                    !- Terrain
  0.04,                    !- Loads Convergence Tolerance Value {W}
  0.4,                     !- Temperature Convergence Tolerance Value {deltaC}
  FullExterior,            !- Solar Distribution
  25,                      !- Maximum Number of Warmup Days
  6;                       !- Minimum Number of Warmup Days

GlobalGeometryRules,
  UpperLeftCorner,         !- Starting Vertex Position
  Counterclockwise,        !- Vertex Entry Direction
  Relative;                !- Coordinate System

Zone,
  Sentinel Zone,           !- Name
  0.0,                     !- Direction of Relative North {deg}
  0.0,                     !- X Origin {m}
  0.0,                     !- Y Origin {m}
  0.0,                     !- Z Origin {m}
  1,                       !- Type
  1,                       !- Multiplier
  autocalculate,           !- Ceiling Height {m}
  AUTOCALCULATE,           !- Volume {m3}
  AutoCalculate;           !- Floor Area {m2}
