Version,
  26.1;                    !- Version Identifier

Building,
  Simple One Zone,         !- Name
  0.0,                     !- North Axis {deg}
  Suburbs,                 !- Terrain
  0.04,                    !- Loads Convergence Tolerance Value {W}
  0.4,                     !- Temperature Convergence Tolerance Value {deltaC}
  FullExterior,            !- Solar Distribution
  25,                      !- Maximum Number of Warmup Days
  6;                       !- Minimum Number of Warmup Days

GlobalGeometryRules,
  UpperLeftCorner,         !- Starting Vertex Position
  Counterclockwise,        !- Vertex Entry Direction
  World;                   !- Coordinate System

! The object name below is the two UTF-8 characters U+8BD5 U+9A8C, six bytes,
! taken verbatim from ExampleFiles/1ZoneUncontrolledUTF8.idf.
Material:NoMass,
  试验,                    !- Name
  Rough,                   !- Roughness
  5.0;                     !- Thermal Resistance {m2-K/W}
