! The canonical string form of a version, written into the file in full. Its sibling
! versions-26-1-0 writes the same release as the two component 26.1, so the pair brackets
! both spellings of one release and neither library can satisfy both by fabricating the
! identifier from its own internal version.

  Version,26.1.0;

  Building,
    Conformance,             !- Name
    0.0,                     !- North Axis {deg}
    City,                    !- Terrain
    0.04,                    !- Loads Convergence Tolerance Value {W}
    0.4,                     !- Temperature Convergence Tolerance Value {deltaC}
    FullExterior,            !- Solar Distribution
    25,                      !- Maximum Number of Warmup Days
    6;                       !- Minimum Number of Warmup Days

  GlobalGeometryRules,
    UpperLeftCorner,         !- Starting Vertex Position
    Counterclockwise,        !- Vertex Entry Direction
    Relative,                !- Coordinate System
    Relative,                !- Daylighting Reference Point Coordinate System
    Relative;                !- Rectangular Surface Coordinate System
