Version,
  26.1;

Building,
  Integer Fields,
  0.0,                     !- North Axis {deg}
  City,                    !- Terrain
  0.04,                    !- Loads Convergence Tolerance Value {W}
  0.4,                     !- Temperature Convergence Tolerance Value {deltaC}
  FullExterior,            !- Solar Distribution
  25,                      !- Maximum Number of Warmup Days
  6;                       !- Minimum Number of Warmup Days

GlobalGeometryRules,
  UpperLeftCorner,         !- Starting Vertex Position
  Counterclockwise,        !- Vertex Entry Direction
  Relative;                !- Coordinate System

Timestep,
  6.0;                     !- Number of Timesteps per Hour

Zone,
  Multiplied Zone,         !- Name
  0.0,                     !- Direction of Relative North {deg}
  0.0,                     !- X Origin {m}
  0.0,                     !- Y Origin {m}
  0.0,                     !- Z Origin {m}
  1,                       !- Type
  3.0;                     !- Multiplier
